% Logging successfully configured
=====UNKNOWN=====
% time elapsed: 300.05 s
%%%mzn-stat: initTime=0.031881047
%%%mzn-stat: nodes=325823
%%%mzn-stat: restarts=0
%%%mzn-stat: peakDepth=87
%%%mzn-stat: solveTime=297.281282665
%%%mzn-stat: variables=2661
%%%mzn-stat: propagators=12922
%%%mzn-stat: failures=285761
%%%mzn-stat: propagations=641201562
%%%mzn-stat: nogoods=285761
%%%mzn-stat: numAtomicConstraintsPropagated=0
%%%mzn-stat: circuitNumber11176PropagationsThatFoundConflict=774
%%%mzn-stat: circuitNumber11176TotalFixedEdgesAtConflict=100346
%%%mzn-stat: circuitNumber11176NumberOfConflicts=774
%%%mzn-stat: circuitNumber11176PropagationsThatPruned=23688
%%%mzn-stat: circuitNumber11176PropagationsTotal=290036
%%%mzn-stat: AverageConflictSize=18.02835936324411
%%%mzn-stat: NumUnitNogoodsLearned=0
%%%mzn-stat: AverageLearnedNogoodLength=76.50824990114117
%%%mzn-stat: AverageBacktrackAmount=0
%%%mzn-stat: AverageLbd=36.565332568125115
%%%mzn-stat: 2AutonomousSearchNumBackupCalled=0
%%%mzn-stat: 2AutonomousSearchNumPredicatesRemoved=0
%%%mzn-stat: 2AutonomousSearchNumCalls=0
%%%mzn-stat: 2AutonomousSearchNumPredicatesAdded=8565
%%%mzn-stat: 2AutonomousSearchAverageSizeOfHeap=0
%%%mzn-stat: 2AutonomousSearchNumAssignedPredicatesEncountered=0
%%%mzn-stat-end
